language Essence 1.3

letting length be 4
letting avoiding be {(sequence(1,3,2),relation((1,1),(1,2),(2,1),(2,2)))}

$ 15 Solutions for avoidance should be
$ Avoiding pattern
$ 1234, 2134, 2314 ,2341, 3124, 3214, 3241, 3412, 3421, 4123, 4213, 4231, 4312, 4321

$ Contains pattern but breaks mesh
$ 1423